Route #1: 100 61 23
Route #2: 54 70 1
Route #3: 35 46 31
Route #4: 32 33 53 73 95 24
Route #5: 3 77 63
Route #6: 80 94 56 21
Route #7: 81 51 83
Route #8: 57 72 36 29 43 45 2 7
Route #9: 93 75
Route #10: 27 97 19
Route #11: 69 16 55 76
Route #12: 15 22 41 20
Route #13: 30 85 11 79
Route #14: 40 88 67 44
Route #15: 14 49 6 37 87
Route #16: 82 60 59
Route #17: 86 9 92
Route #18: 4 13 74
Route #19: 17 8
Route #20: 68 90 84 66
Route #21: 58 12 5
Route #22: 25 65 78 42 28
Route #23: 89 98 99 62 71
Route #24: 50 91 52
Route #25: 38 47 26 48 96 64 34
Route #26: 18 10 39
Cost 27591.0000
Time 16.0006